p cnf 200 1110
-101 41 0
-101 65 0
-101 35 0
-101 86 0
-101 -34 0
-101 -100 0
-101 13 0
-101 -27 0
-101 -50 0
-101 -72 0
101 -41 -65 -35 -86 34 100 -13 27 50 72 0
-102 67 0
-102 -35 0
-102 -10 0
-102 -94 0
-102 -42 0
-102 -86 0
-102 85 0
-102 -41 0
-102 83 0
-102 -79 0
102 -67 35 10 94 42 86 -85 41 -83 79 0
-103 -16 0
-103 6 0
-103 -19 0
-103 70 0
-103 47 0
-103 71 0
-103 -94 0
-103 -22 0
-103 10 0
-103 7 0
103 16 -6 19 -70 -47 -71 94 22 -10 -7 0
-104 71 0
-104 68 0
-104 12 0
-104 -27 0
-104 82 0
-104 -93 0
-104 79 0
-104 87 0
-104 81 0
-104 -67 0
104 -71 -68 -12 27 -82 93 -79 -87 -81 67 0
-105 -94 0
-105 -53 0
-105 -51 0
-105 -57 0
-105 -9 0
-105 44 0
-105 -80 0
-105 58 0
-105 32 0
-105 33 0
105 94 53 51 57 9 -44 80 -58 -32 -33 0
-106 66 0
-106 -41 0
-106 -19 0
-106 -98 0
-106 -57 0
-106 15 0
-106 90 0
-106 1 0
-106 -51 0
-106 -95 0
106 -66 41 19 98 57 -15 -90 -1 51 95 0
-107 -7 0
-107 57 0
-107 88 0
-107 -28 0
-107 -63 0
-107 -5 0
-107 79 0
-107 -11 0
-107 20 0
-107 98 0
107 7 -57 -88 28 63 5 -79 11 -20 -98 0
-108 -18 0
-108 -14 0
-108 -69 0
-108 -37 0
-108 45 0
-108 -57 0
-108 -51 0
-108 -90 0
-108 63 0
-108 -92 0
108 18 14 69 37 -45 57 51 90 -63 92 0
-109 37 0
-109 -90 0
-109 79 0
-109 -17 0
-109 25 0
-109 -45 0
-109 76 0
-109 -51 0
-109 -93 0
-109 -4 0
109 -37 90 -79 17 -25 45 -76 51 93 4 0
-110 -53 0
-110 94 0
-110 -26 0
-110 63 0
-110 -93 0
-110 51 0
-110 32 0
-110 -96 0
-110 88 0
-110 98 0
110 53 -94 26 -63 93 -51 -32 96 -88 -98 0
101 102 103 104 105 106 107 108 109 110 0
-111 -56 0
-111 94 0
-111 -45 0
-111 4 0
-111 95 0
-111 63 0
-111 -92 0
-111 64 0
-111 -26 0
-111 -88 0
111 56 -94 45 -4 -95 -63 92 -64 26 88 0
-112 55 0
-112 -45 0
-112 56 0
-112 -42 0
-112 -61 0
-112 -72 0
-112 -94 0
-112 -85 0
-112 -36 0
-112 66 0
112 -55 45 -56 42 61 72 94 85 36 -66 0
-113 92 0
-113 -66 0
-113 57 0
-113 -7 0
-113 82 0
-113 -52 0
-113 18 0
-113 -5 0
-113 11 0
-113 -78 0
113 -92 66 -57 7 -82 52 -18 5 -11 78 0
-114 57 0
-114 -65 0
-114 -16 0
-114 11 0
-114 83 0
-114 61 0
-114 21 0
-114 -73 0
-114 82 0
-114 -22 0
114 -57 65 16 -11 -83 -61 -21 73 -82 22 0
-115 62 0
-115 26 0
-115 17 0
-115 -76 0
-115 -79 0
-115 -81 0
-115 -16 0
-115 97 0
-115 12 0
-115 14 0
115 -62 -26 -17 76 79 81 16 -97 -12 -14 0
-116 13 0
-116 57 0
-116 14 0
-116 85 0
-116 80 0
-116 8 0
-116 99 0
-116 74 0
-116 3 0
-116 93 0
116 -13 -57 -14 -85 -80 -8 -99 -74 -3 -93 0
-117 -49 0
-117 44 0
-117 -37 0
-117 -68 0
-117 40 0
-117 76 0
-117 -74 0
-117 -45 0
-117 -90 0
-117 -82 0
117 49 -44 37 68 -40 -76 74 45 90 82 0
-118 26 0
-118 83 0
-118 74 0
-118 84 0
-118 25 0
-118 65 0
-118 69 0
-118 -85 0
-118 97 0
-118 -55 0
118 -26 -83 -74 -84 -25 -65 -69 85 -97 55 0
-119 -6 0
-119 -35 0
-119 75 0
-119 34 0
-119 50 0
-119 -4 0
-119 68 0
-119 -19 0
-119 -24 0
-119 80 0
119 6 35 -75 -34 -50 4 -68 19 24 -80 0
-120 41 0
-120 12 0
-120 63 0
-120 -73 0
-120 43 0
-120 -78 0
-120 38 0
-120 66 0
-120 7 0
-120 -51 0
120 -41 -12 -63 73 -43 78 -38 -66 -7 51 0
111 112 113 114 115 116 117 118 119 120 0
-121 69 0
-121 81 0
-121 -36 0
-121 26 0
-121 42 0
-121 65 0
-121 12 0
-121 16 0
-121 -30 0
-121 -37 0
121 -69 -81 36 -26 -42 -65 -12 -16 30 37 0
-122 -69 0
-122 -51 0
-122 43 0
-122 39 0
-122 68 0
-122 57 0
-122 -42 0
-122 5 0
-122 -66 0
-122 -98 0
122 69 51 -43 -39 -68 -57 42 -5 66 98 0
-123 54 0
-123 57 0
-123 -84 0
-123 81 0
-123 53 0
-123 -32 0
-123 48 0
-123 -47 0
-123 50 0
-123 -90 0
123 -54 -57 84 -81 -53 32 -48 47 -50 90 0
-124 45 0
-124 -82 0
-124 -85 0
-124 -76 0
-124 -55 0
-124 -58 0
-124 54 0
-124 94 0
-124 100 0
-124 7 0
124 -45 82 85 76 55 58 -54 -94 -100 -7 0
-125 29 0
-125 -17 0
-125 16 0
-125 -13 0
-125 27 0
-125 -37 0
-125 -33 0
-125 -30 0
-125 43 0
-125 51 0
125 -29 17 -16 13 -27 37 33 30 -43 -51 0
-126 43 0
-126 -39 0
-126 -57 0
-126 96 0
-126 13 0
-126 75 0
-126 -38 0
-126 16 0
-126 41 0
-126 -17 0
126 -43 39 57 -96 -13 -75 38 -16 -41 17 0
-127 -89 0
-127 -59 0
-127 -39 0
-127 -38 0
-127 88 0
-127 51 0
-127 18 0
-127 28 0
-127 8 0
-127 -67 0
127 89 59 39 38 -88 -51 -18 -28 -8 67 0
-128 25 0
-128 -16 0
-128 -32 0
-128 -1 0
-128 -35 0
-128 61 0
-128 -10 0
-128 -88 0
-128 48 0
-128 -65 0
128 -25 16 32 1 35 -61 10 88 -48 65 0
-129 -31 0
-129 98 0
-129 85 0
-129 42 0
-129 47 0
-129 95 0
-129 -10 0
-129 -82 0
-129 70 0
-129 -64 0
129 31 -98 -85 -42 -47 -95 10 82 -70 64 0
-130 19 0
-130 -26 0
-130 92 0
-130 -100 0
-130 18 0
-130 12 0
-130 41 0
-130 -69 0
-130 91 0
-130 -93 0
130 -19 26 -92 100 -18 -12 -41 69 -91 93 0
121 122 123 124 125 126 127 128 129 130 0
-131 51 0
-131 -33 0
-131 35 0
-131 48 0
-131 62 0
-131 -91 0
-131 -44 0
-131 -13 0
-131 -28 0
-131 46 0
131 -51 33 -35 -48 -62 91 44 13 28 -46 0
-132 99 0
-132 -8 0
-132 30 0
-132 40 0
-132 -81 0
-132 -27 0
-132 80 0
-132 61 0
-132 13 0
-132 51 0
132 -99 8 -30 -40 81 27 -80 -61 -13 -51 0
-133 44 0
-133 -37 0
-133 29 0
-133 7 0
-133 -68 0
-133 -93 0
-133 -33 0
-133 19 0
-133 60 0
-133 43 0
133 -44 37 -29 -7 68 93 33 -19 -60 -43 0
-134 20 0
-134 -81 0
-134 19 0
-134 64 0
-134 -53 0
-134 -59 0
-134 -98 0
-134 24 0
-134 47 0
-134 62 0
134 -20 81 -19 -64 53 59 98 -24 -47 -62 0
-135 17 0
-135 -30 0
-135 -77 0
-135 44 0
-135 -15 0
-135 8 0
-135 -94 0
-135 83 0
-135 50 0
-135 -92 0
135 -17 30 77 -44 15 -8 94 -83 -50 92 0
-136 -45 0
-136 -19 0
-136 -100 0
-136 -77 0
-136 53 0
-136 11 0
-136 -27 0
-136 29 0
-136 54 0
-136 48 0
136 45 19 100 77 -53 -11 27 -29 -54 -48 0
-137 -93 0
-137 -44 0
-137 -2 0
-137 -28 0
-137 24 0
-137 -43 0
-137 68 0
-137 87 0
-137 46 0
-137 -26 0
137 93 44 2 28 -24 43 -68 -87 -46 26 0
-138 -60 0
-138 93 0
-138 61 0
-138 -2 0
-138 -56 0
-138 78 0
-138 -48 0
-138 -11 0
-138 -88 0
-138 28 0
138 60 -93 -61 2 56 -78 48 11 88 -28 0
-139 -40 0
-139 -43 0
-139 -82 0
-139 16 0
-139 23 0
-139 -48 0
-139 -7 0
-139 -41 0
-139 56 0
-139 78 0
139 40 43 82 -16 -23 48 7 41 -56 -78 0
-140 83 0
-140 -27 0
-140 -45 0
-140 9 0
-140 -20 0
-140 -4 0
-140 -15 0
-140 23 0
-140 96 0
-140 14 0
140 -83 27 45 -9 20 4 15 -23 -96 -14 0
131 132 133 134 135 136 137 138 139 140 0
-141 27 0
-141 92 0
-141 99 0
-141 -50 0
-141 25 0
-141 -75 0
-141 68 0
-141 26 0
-141 20 0
-141 46 0
141 -27 -92 -99 50 -25 75 -68 -26 -20 -46 0
-142 14 0
-142 -10 0
-142 62 0
-142 42 0
-142 74 0
-142 27 0
-142 -18 0
-142 60 0
-142 32 0
-142 -20 0
142 -14 10 -62 -42 -74 -27 18 -60 -32 20 0
-143 56 0
-143 -67 0
-143 -90 0
-143 -64 0
-143 73 0
-143 -46 0
-143 60 0
-143 -79 0
-143 -72 0
-143 31 0
143 -56 67 90 64 -73 46 -60 79 72 -31 0
-144 41 0
-144 -9 0
-144 2 0
-144 96 0
-144 -8 0
-144 -13 0
-144 -83 0
-144 16 0
-144 35 0
-144 47 0
144 -41 9 -2 -96 8 13 83 -16 -35 -47 0
-145 -13 0
-145 -94 0
-145 42 0
-145 -70 0
-145 3 0
-145 -97 0
-145 77 0
-145 38 0
-145 80 0
-145 62 0
145 13 94 -42 70 -3 97 -77 -38 -80 -62 0
-146 30 0
-146 2 0
-146 24 0
-146 -37 0
-146 -71 0
-146 -6 0
-146 -86 0
-146 -36 0
-146 73 0
-146 58 0
146 -30 -2 -24 37 71 6 86 36 -73 -58 0
-147 75 0
-147 -17 0
-147 -94 0
-147 69 0
-147 -64 0
-147 -4 0
-147 -62 0
-147 -2 0
-147 -79 0
-147 -54 0
147 -75 17 94 -69 64 4 62 2 79 54 0
-148 66 0
-148 86 0
-148 -78 0
-148 -46 0
-148 56 0
-148 96 0
-148 80 0
-148 -64 0
-148 -29 0
-148 -11 0
148 -66 -86 78 46 -56 -96 -80 64 29 11 0
-149 -53 0
-149 -12 0
-149 60 0
-149 38 0
-149 90 0
-149 -87 0
-149 -93 0
-149 -35 0
-149 14 0
-149 58 0
149 53 12 -60 -38 -90 87 93 35 -14 -58 0
-150 -47 0
-150 -3 0
-150 -34 0
-150 -48 0
-150 44 0
-150 -99 0
-150 20 0
-150 88 0
-150 97 0
-150 58 0
150 47 3 34 48 -44 99 -20 -88 -97 -58 0
141 142 143 144 145 146 147 148 149 150 0
-151 74 0
-151 -64 0
-151 11 0
-151 -9 0
-151 23 0
-151 -81 0
-151 -40 0
-151 38 0
-151 -7 0
-151 73 0
151 -74 64 -11 9 -23 81 40 -38 7 -73 0
-152 -2 0
-152 -33 0
-152 -73 0
-152 -4 0
-152 5 0
-152 58 0
-152 -37 0
-152 -16 0
-152 -27 0
-152 62 0
152 2 33 73 4 -5 -58 37 16 27 -62 0
-153 -55 0
-153 -29 0
-153 99 0
-153 -28 0
-153 -51 0
-153 -3 0
-153 -82 0
-153 53 0
-153 -70 0
-153 31 0
153 55 29 -99 28 51 3 82 -53 70 -31 0
-154 -20 0
-154 82 0
-154 71 0
-154 70 0
-154 67 0
-154 14 0
-154 83 0
-154 7 0
-154 36 0
-154 -76 0
154 20 -82 -71 -70 -67 -14 -83 -7 -36 76 0
-155 -45 0
-155 -29 0
-155 43 0
-155 -20 0
-155 -55 0
-155 -30 0
-155 99 0
-155 -51 0
-155 -26 0
-155 4 0
155 45 29 -43 20 55 30 -99 51 26 -4 0
-156 11 0
-156 -6 0
-156 28 0
-156 92 0
-156 54 0
-156 -27 0
-156 57 0
-156 45 0
-156 -3 0
-156 15 0
156 -11 6 -28 -92 -54 27 -57 -45 3 -15 0
-157 98 0
-157 77 0
-157 45 0
-157 96 0
-157 72 0
-157 -28 0
-157 -44 0
-157 -84 0
-157 -30 0
-157 22 0
157 -98 -77 -45 -96 -72 28 44 84 30 -22 0
-158 41 0
-158 84 0
-158 -95 0
-158 65 0
-158 57 0
-158 -22 0
-158 91 0
-158 24 0
-158 -47 0
-158 38 0
158 -41 -84 95 -65 -57 22 -91 -24 47 -38 0
-159 -66 0
-159 -72 0
-159 65 0
-159 28 0
-159 89 0
-159 98 0
-159 -38 0
-159 32 0
-159 95 0
-159 -63 0
159 66 72 -65 -28 -89 -98 38 -32 -95 63 0
-160 78 0
-160 72 0
-160 4 0
-160 15 0
-160 67 0
-160 -37 0
-160 92 0
-160 54 0
-160 14 0
-160 -41 0
160 -78 -72 -4 -15 -67 37 -92 -54 -14 41 0
151 152 153 154 155 156 157 158 159 160 0
-161 -14 0
-161 -72 0
-161 52 0
-161 12 0
-161 -48 0
-161 75 0
-161 -6 0
-161 82 0
-161 17 0
-161 55 0
161 14 72 -52 -12 48 -75 6 -82 -17 -55 0
-162 41 0
-162 -40 0
-162 25 0
-162 4 0
-162 65 0
-162 -13 0
-162 56 0
-162 47 0
-162 67 0
-162 -89 0
162 -41 40 -25 -4 -65 13 -56 -47 -67 89 0
-163 38 0
-163 -74 0
-163 -1 0
-163 -44 0
-163 -99 0
-163 -22 0
-163 -51 0
-163 -82 0
-163 -59 0
-163 -96 0
163 -38 74 1 44 99 22 51 82 59 96 0
-164 82 0
-164 4 0
-164 75 0
-164 -27 0
-164 -48 0
-164 33 0
-164 -61 0
-164 -29 0
-164 45 0
-164 -38 0
164 -82 -4 -75 27 48 -33 61 29 -45 38 0
-165 -43 0
-165 -41 0
-165 59 0
-165 -84 0
-165 -81 0
-165 6 0
-165 63 0
-165 -18 0
-165 -94 0
-165 -78 0
165 43 41 -59 84 81 -6 -63 18 94 78 0
-166 46 0
-166 99 0
-166 -42 0
-166 59 0
-166 60 0
-166 -32 0
-166 -51 0
-166 12 0
-166 -75 0
-166 -95 0
166 -46 -99 42 -59 -60 32 51 -12 75 95 0
-167 -26 0
-167 -68 0
-167 12 0
-167 -44 0
-167 42 0
-167 90 0
-167 33 0
-167 -32 0
-167 69 0
-167 -11 0
167 26 68 -12 44 -42 -90 -33 32 -69 11 0
-168 93 0
-168 -65 0
-168 29 0
-168 27 0
-168 63 0
-168 35 0
-168 36 0
-168 -16 0
-168 22 0
-168 5 0
168 -93 65 -29 -27 -63 -35 -36 16 -22 -5 0
-169 -83 0
-169 5 0
-169 21 0
-169 79 0
-169 42 0
-169 -27 0
-169 -44 0
-169 77 0
-169 6 0
-169 34 0
169 83 -5 -21 -79 -42 27 44 -77 -6 -34 0
-170 -89 0
-170 87 0
-170 -97 0
-170 21 0
-170 16 0
-170 51 0
-170 9 0
-170 -13 0
-170 67 0
-170 -45 0
170 89 -87 97 -21 -16 -51 -9 13 -67 45 0
161 162 163 164 165 166 167 168 169 170 0
-171 -96 0
-171 -87 0
-171 86 0
-171 73 0
-171 34 0
-171 -23 0
-171 11 0
-171 -26 0
-171 100 0
-171 -38 0
171 96 87 -86 -73 -34 23 -11 26 -100 38 0
-172 -1 0
-172 30 0
-172 -55 0
-172 89 0
-172 -58 0
-172 60 0
-172 -26 0
-172 28 0
-172 91 0
-172 -92 0
172 1 -30 55 -89 58 -60 26 -28 -91 92 0
-173 51 0
-173 -12 0
-173 89 0
-173 93 0
-173 -71 0
-173 -61 0
-173 77 0
-173 -35 0
-173 85 0
-173 -16 0
173 -51 12 -89 -93 71 61 -77 35 -85 16 0
-174 80 0
-174 81 0
-174 -23 0
-174 61 0
-174 -35 0
-174 -39 0
-174 51 0
-174 -57 0
-174 -47 0
-174 69 0
174 -80 -81 23 -61 35 39 -51 57 47 -69 0
-175 87 0
-175 -17 0
-175 90 0
-175 -54 0
-175 97 0
-175 1 0
-175 -20 0
-175 -5 0
-175 -39 0
-175 22 0
175 -87 17 -90 54 -97 -1 20 5 39 -22 0
-176 -23 0
-176 -3 0
-176 31 0
-176 12 0
-176 -70 0
-176 71 0
-176 -19 0
-176 -8 0
-176 -25 0
-176 20 0
176 23 3 -31 -12 70 -71 19 8 25 -20 0
-177 -50 0
-177 62 0
-177 -63 0
-177 -73 0
-177 -81 0
-177 35 0
-177 97 0
-177 100 0
-177 -95 0
-177 -84 0
177 50 -62 63 73 81 -35 -97 -100 95 84 0
-178 -53 0
-178 18 0
-178 97 0
-178 32 0
-178 13 0
-178 -92 0
-178 -34 0
-178 41 0
-178 83 0
-178 25 0
178 53 -18 -97 -32 -13 92 34 -41 -83 -25 0
-179 19 0
-179 -32 0
-179 59 0
-179 57 0
-179 75 0
-179 64 0
-179 -77 0
-179 -11 0
-179 27 0
-179 -82 0
179 -19 32 -59 -57 -75 -64 77 11 -27 82 0
-180 94 0
-180 -3 0
-180 75 0
-180 -88 0
-180 -34 0
-180 80 0
-180 7 0
-180 -1 0
-180 21 0
-180 -66 0
180 -94 3 -75 88 34 -80 -7 1 -21 66 0
171 172 173 174 175 176 177 178 179 180 0
-181 -81 0
-181 19 0
-181 -71 0
-181 85 0
-181 -27 0
-181 -39 0
-181 -96 0
-181 66 0
-181 87 0
-181 61 0
181 81 -19 71 -85 27 39 96 -66 -87 -61 0
-182 -74 0
-182 51 0
-182 27 0
-182 -25 0
-182 -88 0
-182 -8 0
-182 52 0
-182 -64 0
-182 -99 0
-182 -20 0
182 74 -51 -27 25 88 8 -52 64 99 20 0
-183 48 0
-183 -37 0
-183 72 0
-183 -42 0
-183 -82 0
-183 -7 0
-183 -44 0
-183 -55 0
-183 -79 0
-183 80 0
183 -48 37 -72 42 82 7 44 55 79 -80 0
-184 -43 0
-184 -37 0
-184 -74 0
-184 19 0
-184 88 0
-184 48 0
-184 -29 0
-184 34 0
-184 -90 0
-184 33 0
184 43 37 74 -19 -88 -48 29 -34 90 -33 0
-185 6 0
-185 -91 0
-185 48 0
-185 -74 0
-185 -94 0
-185 -3 0
-185 -9 0
-185 -47 0
-185 -96 0
-185 2 0
185 -6 91 -48 74 94 3 9 47 96 -2 0
-186 100 0
-186 -15 0
-186 51 0
-186 16 0
-186 38 0
-186 74 0
-186 -95 0
-186 71 0
-186 -26 0
-186 -20 0
186 -100 15 -51 -16 -38 -74 95 -71 26 20 0
-187 72 0
-187 -50 0
-187 15 0
-187 -5 0
-187 -39 0
-187 27 0
-187 33 0
-187 18 0
-187 93 0
-187 89 0
187 -72 50 -15 5 39 -27 -33 -18 -93 -89 0
-188 78 0
-188 -62 0
-188 39 0
-188 -65 0
-188 -46 0
-188 94 0
-188 84 0
-188 69 0
-188 72 0
-188 47 0
188 -78 62 -39 65 46 -94 -84 -69 -72 -47 0
-189 -36 0
-189 20 0
-189 86 0
-189 -64 0
-189 5 0
-189 -99 0
-189 52 0
-189 96 0
-189 -4 0
-189 -75 0
189 36 -20 -86 64 -5 99 -52 -96 4 75 0
-190 53 0
-190 -72 0
-190 -56 0
-190 68 0
-190 24 0
-190 26 0
-190 -42 0
-190 23 0
-190 -4 0
-190 -14 0
190 -53 72 56 -68 -24 -26 42 -23 4 14 0
181 182 183 184 185 186 187 188 189 190 0
-191 -39 0
-191 15 0
-191 1 0
-191 -50 0
-191 31 0
-191 -42 0
-191 -81 0
-191 91 0
-191 87 0
-191 -70 0
191 39 -15 -1 50 -31 42 81 -91 -87 70 0
-192 98 0
-192 -43 0
-192 26 0
-192 4 0
-192 92 0
-192 -48 0
-192 -65 0
-192 -45 0
-192 -58 0
-192 96 0
192 -98 43 -26 -4 -92 48 65 45 58 -96 0
-193 16 0
-193 92 0
-193 47 0
-193 13 0
-193 -79 0
-193 -67 0
-193 10 0
-193 56 0
-193 49 0
-193 74 0
193 -16 -92 -47 -13 79 67 -10 -56 -49 -74 0
-194 -7 0
-194 46 0
-194 -84 0
-194 53 0
-194 -92 0
-194 -21 0
-194 -34 0
-194 -13 0
-194 -96 0
-194 35 0
194 7 -46 84 -53 92 21 34 13 96 -35 0
-195 -25 0
-195 -91 0
-195 -46 0
-195 5 0
-195 -48 0
-195 80 0
-195 -23 0
-195 -57 0
-195 -51 0
-195 -75 0
195 25 91 46 -5 48 -80 23 57 51 75 0
-196 -39 0
-196 20 0
-196 -38 0
-196 -77 0
-196 -47 0
-196 17 0
-196 -94 0
-196 68 0
-196 -62 0
-196 -35 0
196 39 -20 38 77 47 -17 94 -68 62 35 0
-197 -94 0
-197 91 0
-197 -86 0
-197 -34 0
-197 11 0
-197 39 0
-197 -31 0
-197 42 0
-197 76 0
-197 37 0
197 94 -91 86 34 -11 -39 31 -42 -76 -37 0
-198 -49 0
-198 -10 0
-198 58 0
-198 20 0
-198 32 0
-198 14 0
-198 100 0
-198 71 0
-198 -86 0
-198 5 0
198 49 10 -58 -20 -32 -14 -100 -71 86 -5 0
-199 76 0
-199 41 0
-199 93 0
-199 -67 0
-199 -4 0
-199 55 0
-199 72 0
-199 19 0
-199 -97 0
-199 49 0
199 -76 -41 -93 67 4 -55 -72 -19 97 -49 0
-200 30 0
-200 73 0
-200 -62 0
-200 76 0
-200 -15 0
-200 61 0
-200 50 0
-200 -81 0
-200 72 0
-200 -82 0
200 -30 -73 62 -76 15 -61 -50 81 -72 82 0
191 192 193 194 195 196 197 198 199 200 0
